(set-logic QF_NIA)
(set-info :source |
    Sequential equivalence checking.
    Calypto Design Systems, Inc. <www.calypto.com>
  |)
(set-info :smt-lib-version 2.0)
(set-info :category "industrial")
(set-info :status unsat)
(declare-fun P_2 () Bool)
(declare-fun P_3 () Int)
(declare-fun P_4 () Int)
(declare-fun P_5 () Int)
(declare-fun P_6 () Int)
(declare-fun P_7 () Int)
(declare-fun P_8 () Int)
(declare-fun P_10 () Int)
(assert (<= 0 P_3))
(assert (<= P_3 255))
(assert (<= 0 P_4))
(assert (<= P_4 255))
(assert (<= 0 P_5))
(assert (<= P_5 255))
(assert (<= 0 P_6))
(assert (<= P_6 255))
(assert (<= 0 P_7))
(assert (<= P_7 255))
(assert (<= 0 P_8))
(assert (<= P_8 255))
(assert (<= 0 P_10))
(assert (<= P_10 255))
(declare-fun dz () Int)
(declare-fun rz () Int)
(assert (let ((?v_0 (* (+ P_3 P_4) P_5)) (?v_2 (+ (- P_3 (* (+ P_6 P_7) P_4)) P_5)) (?v_3 (+ P_8 (* P_4 P_6))) (?v_1 (not P_2))) (= (+ (* 256 dz) rz) (- (ite ?v_1 ?v_0 (+ (* ?v_0 (ite ?v_1 (+ (* ?v_2 ?v_3) (+ (- (* P_7 P_6) P_4) (- P_10 P_3))) ?v_2)) ?v_3)) (ite ?v_1 ?v_0 (+ (* ?v_0 ?v_2) ?v_3))))))
(assert (> rz 0))
(assert (< rz 256))
(check-sat)
(exit)
